; benchmark generated from python API
(set-info :status unknown)
(declare-fun strlen_72_64 () (_ BitVec 64))
(declare-fun args_0_8 () (_ BitVec 8))
(declare-fun strlen_74_64 () (_ BitVec 64))
(declare-fun args_1_8 () (_ BitVec 8))
(declare-fun strlen_77_64 () (_ BitVec 64))
(declare-fun args_2_8 () (_ BitVec 8))
(declare-fun args_3_8 () (_ BitVec 8))
(declare-fun strlen_80_64 () (_ BitVec 64))
(declare-fun strlen_84_64 () (_ BitVec 64))
(declare-fun args_4_8 () (_ BitVec 8))
(declare-fun args_5_16 () (_ BitVec 16))
(declare-fun strlen_88_64 () (_ BitVec 64))
(declare-fun strlen_92_64 () (_ BitVec 64))
(declare-fun args_6_16 () (_ BitVec 16))
(declare-fun strlen_97_64 () (_ BitVec 64))
(declare-fun args_7_16 () (_ BitVec 16))
(declare-fun sigaction_oldact_288_1216 () (_ BitVec 1216))
(declare-fun sigaction_oldact_413_1216 () (_ BitVec 1216))
(declare-fun sigaction_oldact_625_1216 () (_ BitVec 1216))
(declare-fun sigaction_oldact_1114_1216 () (_ BitVec 1216))
(declare-fun sigaction_oldact_2120_1216 () (_ BitVec 1216))
(assert
 (= (_ bv1 64) strlen_72_64))
(assert
 (let (($x69 (= (_ bv0 8) args_0_8)))
 (not $x69)))
(assert
 (= (_ bv1 64) strlen_74_64))
(assert
 (let (($x347 (= (_ bv0 8) args_1_8)))
 (not $x347)))
(assert
 (= (_ bv1 64) strlen_77_64))
(assert
 (let (($x369 (= (_ bv0 8) args_2_8)))
 (not $x369)))
(assert
 (let (($x415 (= (_ bv0 8) args_3_8)))
 (not $x415)))
(assert
 (= (_ bv1 64) strlen_80_64))
(assert
 (= (_ bv1 64) strlen_84_64))
(assert
 (let (($x222 (= (_ bv0 8) args_4_8)))
 (not $x222)))
(assert
 (let ((?x533 ((_ extract 7 0) args_5_16)))
 (let (($x532 (= (_ bv0 8) ?x533)))
 (not $x532))))
(assert
 (let ((?x333 ((_ extract 15 8) args_5_16)))
 (let (($x537 (= (_ bv0 8) ?x333)))
 (not $x537))))
(assert
 (= (_ bv2 64) strlen_88_64))
(assert
 (let (($x499 (= (_ bv2 64) strlen_92_64)))
 (not $x499)))
(assert
 (let ((?x714 (bvadd (_ bv576460752303357837 64) strlen_92_64)))
 (let ((?x698 ((_ extract 7 0) args_6_16)))
 (let (($x717 (= (_ bv0 8) ?x698)))
 (let ((?x697 (ite $x717 (_ bv576460752303357838 64) (_ bv576460752303357839 64))))
 (let ((?x425 ((_ extract 15 8) args_6_16)))
 (let (($x701 (= (_ bv0 8) ?x425)))
 (let ((?x700 (ite $x701 (_ bv576460752303357837 64) ?x697)))
 (= ?x700 ?x714)))))))))
(assert
 (let ((?x306 ((_ extract 7 0) args_7_16)))
 (let (($x734 (= (_ bv0 8) ?x306)))
 (let ((?x798 (ite $x734 (_ bv576460752303357841 64) (_ bv576460752303357842 64))))
 (let ((?x498 ((_ extract 15 8) args_7_16)))
 (let (($x787 (= (_ bv0 8) ?x498)))
 (let ((?x513 (ite $x787 (_ bv576460752303357840 64) ?x798)))
 (let ((?x507 (bvsub ?x513 (_ bv576460752303357840 64))))
 (= ?x507 strlen_97_64)))))))))
(assert
 (let ((?x9274 ((_ extract 127 120) sigaction_oldact_288_1216)))
 (let ((?x9299 (bvand ?x9274 (_ bv4 8))))
 (and (distinct (_ bv0 8) ?x9299) true))))
(assert
 (let ((?x18691 ((_ extract 127 120) sigaction_oldact_413_1216)))
 (let ((?x18838 (bvand ?x18691 (_ bv4 8))))
 (= (_ bv0 8) ?x18838))))
(assert
 (let ((?x33023 ((_ extract 127 120) sigaction_oldact_625_1216)))
 (let ((?x33029 (bvand ?x33023 (_ bv4 8))))
 (and (distinct (_ bv0 8) ?x33029) true))))
(assert
 (let ((?x63616 ((_ extract 127 120) sigaction_oldact_1114_1216)))
 (let ((?x63631 (bvand ?x63616 (_ bv4 8))))
 (and (distinct (_ bv0 8) ?x63631) true))))
(assert
 (let ((?x120870 ((_ extract 127 120) sigaction_oldact_2120_1216)))
 (let ((?x83237 (bvand ?x120870 (_ bv4 8))))
 (and (distinct (_ bv0 8) ?x83237) true))))
(minimize strlen_80_64)
(maximize args_3_8)
(minimize sigaction_oldact_288_1216)
(minimize sigaction_oldact_2120_1216)
(maximize args_2_8)
(minimize args_0_8)
(minimize strlen_74_64)
(maximize sigaction_oldact_2120_1216)
(maximize args_0_8)
(minimize strlen_72_64)
(minimize strlen_77_64)
(maximize args_1_8)
(maximize strlen_88_64)
(minimize args_3_8)
(minimize sigaction_oldact_413_1216)
(maximize strlen_97_64)
(maximize strlen_72_64)
(maximize strlen_92_64)
(minimize args_2_8)
(minimize args_5_16)
(maximize sigaction_oldact_625_1216)
(maximize args_5_16)
(minimize strlen_84_64)
(minimize args_4_8)
(maximize args_7_16)
(minimize args_1_8)
(minimize args_6_16)
(minimize sigaction_oldact_625_1216)
(maximize args_6_16)
(minimize strlen_88_64)
(maximize strlen_74_64)
(minimize strlen_97_64)
(maximize strlen_84_64)
(maximize sigaction_oldact_288_1216)
(check-sat)
(get-objectives)
